NAME: tsp40_2
COMMENT: 40-tsp problem (Padberg/Rinaldi)
TYPE: TSP
DIMENSION: 40
EDGE_WEIGHT_TYPE : EUC_2D
NODE_COORD_SECTION
1 20 23
2 36 8
3 18 33
4 22 18
5 3 19
6 23 22
7 7 39
8 28 6
9 23 8
10 23 2
11 35 2
12 40 27
13 12 17
14 16 16
15 11 30
16 9 27
17 3 23
18 21 16
19 39 13
20 17 6
21 33 33
22 36 25
23 30 9
24 36 1
25 36 31
26 13 17
27 22 17
28 37 35
29 11 35
30 19 27
31 2 2
32 14 21
33 2 18
34 11 4
35 5 28
36 23 37
37 21 24
38 32 10
39 21 25
40 12 15
